benchmarks/crosswords/mzn/crossword3_47.ozn
output ([(((("\n"++problem_name)++"\n")++"L:")++show(L))++"\n"]++[if problem[i,j]==0 then "*" else show(letters[fix(L[problem[i,j]])]) endif++if j==cols then "\n" else "" endif | i in 1..rows, j in 1..cols, ])++["\n"];
int: rows = 23;
int: cols = 23;
array [1..rows,1..cols] of int: problem = [|1,2,3,4,5,6,7,0,8,9,10,11,12,13,14,0,15,16,17,18,19,20,21|22,23,24,25,26,27,28,0,29,30,31,32,33,34,35,0,36,37,38,39,40,41,42|43,44,45,46,47,48,49,0,50,51,52,53,54,55,56,0,57,58,59,60,61,62,63|64,65,66,0,67,68,69,70,0,71,72,73,74,0,75,76,77,78,79,0,80,81,82|83,84,85,86,0,87,88,89,90,91,92,93,0,94,95,96,97,98,0,99,100,101,102|103,104,105,106,107,0,108,109,110,111,0,112,113,114,115,116,117,0,118,119,120,121,122|123,124,125,126,127,128,0,129,130,131,132,0,133,134,135,136,0,137,138,139,140,141,142|0,0,0,143,144,145,146,147,148,0,149,150,151,152,153,0,154,155,156,157,0,0,0|158,159,160,0,161,162,163,164,0,165,166,167,168,169,0,170,171,172,173,174,175,176,177|178,179,180,181,182,183,184,0,185,186,187,188,189,0,190,191,192,193,194,0,195,196,197|198,199,200,201,202,0,203,204,205,206,207,208,0,209,210,211,212,213,0,214,215,216,217|218,219,220,221,222,223,0,224,225,226,227,0,228,229,230,231,0,232,233,234,235,236,237|238,239,240,241,0,242,243,244,245,246,0,247,248,249,250,251,252,0,253,254,255,256,257|258,259,260,0,261,262,263,264,265,0,266,267,268,269,270,0,271,272,273,274,275,276,277|278,279,280,281,282,283,284,285,0,286,287,288,289,290,0,291,292,293,294,0,295,296,297|0,0,0,298,299,300,301,0,302,303,304,305,306,0,307,308,309,310,311,312,0,0,0|313,314,315,316,317,318,0,319,320,321,322,0,323,324,325,326,0,327,328,329,330,331,332|333,334,335,336,337,0,338,339,340,341,342,343,0,344,345,346,347,0,348,349,350,351,352|353,354,355,356,0,357,358,359,360,361,0,362,363,364,365,366,367,368,0,369,370,371,372|373,374,375,0,376,377,378,379,380,0,381,382,383,384,0,385,386,387,388,0,389,390,391|392,393,394,395,396,397,398,0,399,400,401,402,403,404,405,0,406,407,408,409,410,411,412|413,414,415,416,417,418,419,0,420,421,422,423,424,425,426,0,427,428,429,430,431,432,433|434,435,436,437,438,439,440,0,441,442,443,444,445,446,447,0,448,449,450,451,452,453,454|];
int: num_letters = 26;
array [1..num_letters] of string: letters = ["a","b","c","d","e","f","g","h","i","j","k","l","m","n","o","p","q","r","s","t","u","v","w","x","y","z"];
int: N = 454;
array [0..N] of int: L;
string: problem_name = "23.08, 23 x 23";
